proyfinal/src/viki/013/andrea/andrea-localstore/experimentInOfficeAgust.take6/worker_1/a6fc04ad-90bd-4a38-85e5-94f742cbf647.als.cnf.out
Reading from standard input... Use '--help' for help.
============================[ Problem Statistics ]=============================
|                                                                             |
|  Number of variables:         87638                                         |
|  Number of clauses:          161767                                         |
|  Parse time:                   0.03 s                                       |
|                                                                             |
============================[ Search Statistics ]==============================
| Conflicts |          ORIGINAL         |          LEARNT          | Progress |
|           |    Vars  Clauses Literals |    Limit  Clauses Lit/Cl |          |
===============================================================================
|       100 |   61887   103460   258452 |    37935      100     32 | 29.383 % |
|       250 |   61887   103460   258452 |    41728      250    102 | 29.383 % |
|       475 |   61887   103460   258452 |    45901      475    114 | 29.383 % |
|       812 |   61887   103460   258452 |    50491      812    101 | 29.384 % |
|      1318 |   61833   103238   257939 |    55541     1191    124 | 29.445 % |
|      2077 |   61815   103164   257768 |    61095     1936    112 | 29.466 % |
===============================================================================
restarts              : 15
conflicts             : 2674           (6838 /sec)
decisions             : 10031          (0.00 % random) (25651 /sec)
propagations          : 4297824        (10990444 /sec)
conflict literals     : 291802         (51.55 % deleted)
Memory used           : 21.42 MB
CPU time              : 0.391051 s

UNSATISFIABLE
